&CONTROL 
   calculation = 'scf'
   restart_mode = 'from_scratch'
   prefix = 'silicon'
   pseudo_dir = '/home/shinapri/Documents/quantum-espresso/scriptation-2/pps'
   verbosity = 'high'
/

&SYSTEM 
   ibrav = 2
   celldm(1) = 10.26
   nat = 2
   ntyp = 1
   ecutwfc = 40.0
   ecutrho = 200.0
   occupations = 'fixed'
/

&ELECTRONS 
   conv_thr = 1e-08
   mixing_beta = 0.7
/

ATOMIC_SPECIES 
   Si  28.085  Si.pbe-n-rrkjus_psl.1.0.0.UPF


ATOMIC_POSITIONS (alat)
   Si 0.00 0.00 0.00
   Si 0.25 0.25 0.25


K_POINTS (automatic)
   6 6 6 1 1 1


